AES/1_5_4/ssaes_r1-20_c5_rw1_e4_f0_k1-20_aes_min_box_aes_mc_bidirectional/ExperimentMinisat_r12_k14cnf_2011-10-29-181021/Result
WARNING: for repeatability, setting FPU to use double precision
============================[ Problem Statistics ]=============================
|                                                                             |
|  Number of variables:          1116                                         |
|  Number of clauses:            4544                                         |
|  Parse time:                   0.00 s                                       |
|  Eliminated clauses:           0.01 Mb                                      |
|  Simplification time:          0.00 s                                       |
|                                                                             |
=============================[ Search Statistics ]==============================
| Conflicts  |          ORIGINAL         |          LEARNT          | Progress |
|            |    Vars  Clauses Literals |    Limit  Clauses Lit/Cl |          |
================================================================================
|        100 |     768     3464    11504 |     1270      100     17 |  7.885 % |
|        250 |     768     3464    11504 |     1397      250     15 |  7.885 % |
|        475 |     768     3464    11504 |     1536      475     15 |  7.885 % |
|        812 |     768     3464    11504 |     1690      812     16 |  7.885 % |
|       1318 |     768     3464    11504 |     1859     1318     17 |  7.885 % |
|       2077 |     768     3464    11504 |     2045     1070     16 |  7.885 % |
|       3216 |     768     3464    11504 |     2250     1128     15 |  7.885 % |
|       4924 |     768     3464    11504 |     2475     1630     14 |  7.885 % |
|       7486 |     768     3464    11504 |     2722     1592     12 |  7.885 % |
|      11330 |     768     3464    11504 |     2994     2587     17 |  7.885 % |
|      17096 |     768     3464    11504 |     3294     2114     15 |  7.885 % |
|      25745 |     768     3464    11504 |     3623     2228     14 |  7.885 % |
|      38719 |     768     3464    11504 |     3986     2099     12 |  7.885 % |
|      58180 |     768     3464    11504 |     4384     3091     16 |  7.885 % |
|      87372 |     768     3464    11504 |     4823     3006     13 |  7.885 % |
|     131161 |     768     3464    11504 |     5305     4769     17 |  7.885 % |
|     196845 |     768     3464    11504 |     5836     5224     18 |  7.885 % |
|     295371 |     768     3464    11504 |     6419     5420     19 |  7.885 % |
|     443160 |     768     3464    11504 |     7061     6073     19 |  7.885 % |
|     664843 |     768     3464    11504 |     7768     5078     19 |  7.885 % |
|     997368 |     768     3464    11504 |     8544     6260     17 |  7.885 % |
|    1496156 |     768     3464    11504 |     9399     6590     19 |  7.885 % |
|    2244338 |     768     3464    11504 |    10339     7198     19 |  7.885 % |
|    3366612 |     768     3464    11504 |    11373    10182     19 |  7.885 % |
|    5050023 |     768     3464    11504 |    12510     9237     18 |  7.885 % |
===============================================================================
restarts              : 10876
conflicts             : 6730356        (13140 /sec)
decisions             : 7403092        (0.00 % random) (14453 /sec)
propagations          : 2105814148     (4111175 /sec)
conflict literals     : 148112959      (48.53 % deleted)
Memory used           : 12.00 MB
CPU time              : 512.217 s

SATISFIABLE
